p cnf 702 832
51 52 1 79 80 0
51 52 1 79 -80 0
51 52 1 -79 81 0
51 52 1 -79 -81 0
-51 -52 1 82 83 0
-51 -52 1 82 -83 0
-51 -52 1 -82 84 0
-51 -52 1 -82 -84 0
51 -52 -1 85 86 0
51 -52 -1 85 -86 0
51 -52 -1 -85 87 0
51 -52 -1 -85 -87 0
-51 52 -1 88 89 0
-51 52 -1 88 -89 0
-51 52 -1 -88 90 0
-51 52 -1 -88 -90 0
1 53 2 91 92 0
1 53 2 91 -92 0
1 53 2 -91 93 0
1 53 2 -91 -93 0
-1 -53 2 94 95 0
-1 -53 2 94 -95 0
-1 -53 2 -94 96 0
-1 -53 2 -94 -96 0
1 -53 -2 97 98 0
1 -53 -2 97 -98 0
1 -53 -2 -97 99 0
1 -53 -2 -97 -99 0
-1 53 -2 100 101 0
-1 53 -2 100 -101 0
-1 53 -2 -100 102 0
-1 53 -2 -100 -102 0
2 54 3 103 104 0
2 54 3 103 -104 0
2 54 3 -103 105 0
2 54 3 -103 -105 0
-2 -54 3 106 107 0
-2 -54 3 106 -107 0
-2 -54 3 -106 108 0
-2 -54 3 -106 -108 0
2 -54 -3 109 110 0
2 -54 -3 109 -110 0
2 -54 -3 -109 111 0
2 -54 -3 -109 -111 0
-2 54 -3 112 113 0
-2 54 -3 112 -113 0
-2 54 -3 -112 114 0
-2 54 -3 -112 -114 0
3 55 4 115 116 0
3 55 4 115 -116 0
3 55 4 -115 117 0
3 55 4 -115 -117 0
-3 -55 4 118 119 0
-3 -55 4 118 -119 0
-3 -55 4 -118 120 0
-3 -55 4 -118 -120 0
3 -55 -4 121 122 0
3 -55 -4 121 -122 0
3 -55 -4 -121 123 0
3 -55 -4 -121 -123 0
-3 55 -4 124 125 0
-3 55 -4 124 -125 0
-3 55 -4 -124 126 0
-3 55 -4 -124 -126 0
4 56 5 127 128 0
4 56 5 127 -128 0
4 56 5 -127 129 0
4 56 5 -127 -129 0
-4 -56 5 130 131 0
-4 -56 5 130 -131 0
-4 -56 5 -130 132 0
-4 -56 5 -130 -132 0
4 -56 -5 133 134 0
4 -56 -5 133 -134 0
4 -56 -5 -133 135 0
4 -56 -5 -133 -135 0
-4 56 -5 136 137 0
-4 56 -5 136 -137 0
-4 56 -5 -136 138 0
-4 56 -5 -136 -138 0
5 57 6 139 140 0
5 57 6 139 -140 0
5 57 6 -139 141 0
5 57 6 -139 -141 0
-5 -57 6 142 143 0
-5 -57 6 142 -143 0
-5 -57 6 -142 144 0
-5 -57 6 -142 -144 0
5 -57 -6 145 146 0
5 -57 -6 145 -146 0
5 -57 -6 -145 147 0
5 -57 -6 -145 -147 0
-5 57 -6 148 149 0
-5 57 -6 148 -149 0
-5 57 -6 -148 150 0
-5 57 -6 -148 -150 0
6 58 7 151 152 0
6 58 7 151 -152 0
6 58 7 -151 153 0
6 58 7 -151 -153 0
-6 -58 7 154 155 0
-6 -58 7 154 -155 0
-6 -58 7 -154 156 0
-6 -58 7 -154 -156 0
6 -58 -7 157 158 0
6 -58 -7 157 -158 0
6 -58 -7 -157 159 0
6 -58 -7 -157 -159 0
-6 58 -7 160 161 0
-6 58 -7 160 -161 0
-6 58 -7 -160 162 0
-6 58 -7 -160 -162 0
7 59 8 163 164 0
7 59 8 163 -164 0
7 59 8 -163 165 0
7 59 8 -163 -165 0
-7 -59 8 166 167 0
-7 -59 8 166 -167 0
-7 -59 8 -166 168 0
-7 -59 8 -166 -168 0
7 -59 -8 169 170 0
7 -59 -8 169 -170 0
7 -59 -8 -169 171 0
7 -59 -8 -169 -171 0
-7 59 -8 172 173 0
-7 59 -8 172 -173 0
-7 59 -8 -172 174 0
-7 59 -8 -172 -174 0
8 60 9 175 176 0
8 60 9 175 -176 0
8 60 9 -175 177 0
8 60 9 -175 -177 0
-8 -60 9 178 179 0
-8 -60 9 178 -179 0
-8 -60 9 -178 180 0
-8 -60 9 -178 -180 0
8 -60 -9 181 182 0
8 -60 -9 181 -182 0
8 -60 -9 -181 183 0
8 -60 -9 -181 -183 0
-8 60 -9 184 185 0
-8 60 -9 184 -185 0
-8 60 -9 -184 186 0
-8 60 -9 -184 -186 0
9 61 10 187 188 0
9 61 10 187 -188 0
9 61 10 -187 189 0
9 61 10 -187 -189 0
-9 -61 10 190 191 0
-9 -61 10 190 -191 0
-9 -61 10 -190 192 0
-9 -61 10 -190 -192 0
9 -61 -10 193 194 0
9 -61 -10 193 -194 0
9 -61 -10 -193 195 0
9 -61 -10 -193 -195 0
-9 61 -10 196 197 0
-9 61 -10 196 -197 0
-9 61 -10 -196 198 0
-9 61 -10 -196 -198 0
10 62 11 199 200 0
10 62 11 199 -200 0
10 62 11 -199 201 0
10 62 11 -199 -201 0
-10 -62 11 202 203 0
-10 -62 11 202 -203 0
-10 -62 11 -202 204 0
-10 -62 11 -202 -204 0
10 -62 -11 205 206 0
10 -62 -11 205 -206 0
10 -62 -11 -205 207 0
10 -62 -11 -205 -207 0
-10 62 -11 208 209 0
-10 62 -11 208 -209 0
-10 62 -11 -208 210 0
-10 62 -11 -208 -210 0
11 63 12 211 212 0
11 63 12 211 -212 0
11 63 12 -211 213 0
11 63 12 -211 -213 0
-11 -63 12 214 215 0
-11 -63 12 214 -215 0
-11 -63 12 -214 216 0
-11 -63 12 -214 -216 0
11 -63 -12 217 218 0
11 -63 -12 217 -218 0
11 -63 -12 -217 219 0
11 -63 -12 -217 -219 0
-11 63 -12 220 221 0
-11 63 -12 220 -221 0
-11 63 -12 -220 222 0
-11 63 -12 -220 -222 0
12 64 13 223 224 0
12 64 13 223 -224 0
12 64 13 -223 225 0
12 64 13 -223 -225 0
-12 -64 13 226 227 0
-12 -64 13 226 -227 0
-12 -64 13 -226 228 0
-12 -64 13 -226 -228 0
12 -64 -13 229 230 0
12 -64 -13 229 -230 0
12 -64 -13 -229 231 0
12 -64 -13 -229 -231 0
-12 64 -13 232 233 0
-12 64 -13 232 -233 0
-12 64 -13 -232 234 0
-12 64 -13 -232 -234 0
13 65 14 235 236 0
13 65 14 235 -236 0
13 65 14 -235 237 0
13 65 14 -235 -237 0
-13 -65 14 238 239 0
-13 -65 14 238 -239 0
-13 -65 14 -238 240 0
-13 -65 14 -238 -240 0
13 -65 -14 241 242 0
13 -65 -14 241 -242 0
13 -65 -14 -241 243 0
13 -65 -14 -241 -243 0
-13 65 -14 244 245 0
-13 65 -14 244 -245 0
-13 65 -14 -244 246 0
-13 65 -14 -244 -246 0
14 66 15 247 248 0
14 66 15 247 -248 0
14 66 15 -247 249 0
14 66 15 -247 -249 0
-14 -66 15 250 251 0
-14 -66 15 250 -251 0
-14 -66 15 -250 252 0
-14 -66 15 -250 -252 0
14 -66 -15 253 254 0
14 -66 -15 253 -254 0
14 -66 -15 -253 255 0
14 -66 -15 -253 -255 0
-14 66 -15 256 257 0
-14 66 -15 256 -257 0
-14 66 -15 -256 258 0
-14 66 -15 -256 -258 0
15 67 16 259 260 0
15 67 16 259 -260 0
15 67 16 -259 261 0
15 67 16 -259 -261 0
-15 -67 16 262 263 0
-15 -67 16 262 -263 0
-15 -67 16 -262 264 0
-15 -67 16 -262 -264 0
15 -67 -16 265 266 0
15 -67 -16 265 -266 0
15 -67 -16 -265 267 0
15 -67 -16 -265 -267 0
-15 67 -16 268 269 0
-15 67 -16 268 -269 0
-15 67 -16 -268 270 0
-15 67 -16 -268 -270 0
16 68 17 271 272 0
16 68 17 271 -272 0
16 68 17 -271 273 0
16 68 17 -271 -273 0
-16 -68 17 274 275 0
-16 -68 17 274 -275 0
-16 -68 17 -274 276 0
-16 -68 17 -274 -276 0
16 -68 -17 277 278 0
16 -68 -17 277 -278 0
16 -68 -17 -277 279 0
16 -68 -17 -277 -279 0
-16 68 -17 280 281 0
-16 68 -17 280 -281 0
-16 68 -17 -280 282 0
-16 68 -17 -280 -282 0
17 69 18 283 284 0
17 69 18 283 -284 0
17 69 18 -283 285 0
17 69 18 -283 -285 0
-17 -69 18 286 287 0
-17 -69 18 286 -287 0
-17 -69 18 -286 288 0
-17 -69 18 -286 -288 0
17 -69 -18 289 290 0
17 -69 -18 289 -290 0
17 -69 -18 -289 291 0
17 -69 -18 -289 -291 0
-17 69 -18 292 293 0
-17 69 -18 292 -293 0
-17 69 -18 -292 294 0
-17 69 -18 -292 -294 0
18 70 19 295 296 0
18 70 19 295 -296 0
18 70 19 -295 297 0
18 70 19 -295 -297 0
-18 -70 19 298 299 0
-18 -70 19 298 -299 0
-18 -70 19 -298 300 0
-18 -70 19 -298 -300 0
18 -70 -19 301 302 0
18 -70 -19 301 -302 0
18 -70 -19 -301 303 0
18 -70 -19 -301 -303 0
-18 70 -19 304 305 0
-18 70 -19 304 -305 0
-18 70 -19 -304 306 0
-18 70 -19 -304 -306 0
19 71 20 307 308 0
19 71 20 307 -308 0
19 71 20 -307 309 0
19 71 20 -307 -309 0
-19 -71 20 310 311 0
-19 -71 20 310 -311 0
-19 -71 20 -310 312 0
-19 -71 20 -310 -312 0
19 -71 -20 313 314 0
19 -71 -20 313 -314 0
19 -71 -20 -313 315 0
19 -71 -20 -313 -315 0
-19 71 -20 316 317 0
-19 71 -20 316 -317 0
-19 71 -20 -316 318 0
-19 71 -20 -316 -318 0
20 72 21 319 320 0
20 72 21 319 -320 0
20 72 21 -319 321 0
20 72 21 -319 -321 0
-20 -72 21 322 323 0
-20 -72 21 322 -323 0
-20 -72 21 -322 324 0
-20 -72 21 -322 -324 0
20 -72 -21 325 326 0
20 -72 -21 325 -326 0
20 -72 -21 -325 327 0
20 -72 -21 -325 -327 0
-20 72 -21 328 329 0
-20 72 -21 328 -329 0
-20 72 -21 -328 330 0
-20 72 -21 -328 -330 0
21 73 22 331 332 0
21 73 22 331 -332 0
21 73 22 -331 333 0
21 73 22 -331 -333 0
-21 -73 22 334 335 0
-21 -73 22 334 -335 0
-21 -73 22 -334 336 0
-21 -73 22 -334 -336 0
21 -73 -22 337 338 0
21 -73 -22 337 -338 0
21 -73 -22 -337 339 0
21 -73 -22 -337 -339 0
-21 73 -22 340 341 0
-21 73 -22 340 -341 0
-21 73 -22 -340 342 0
-21 73 -22 -340 -342 0
22 74 23 343 344 0
22 74 23 343 -344 0
22 74 23 -343 345 0
22 74 23 -343 -345 0
-22 -74 23 346 347 0
-22 -74 23 346 -347 0
-22 -74 23 -346 348 0
-22 -74 23 -346 -348 0
22 -74 -23 349 350 0
22 -74 -23 349 -350 0
22 -74 -23 -349 351 0
22 -74 -23 -349 -351 0
-22 74 -23 352 353 0
-22 74 -23 352 -353 0
-22 74 -23 -352 354 0
-22 74 -23 -352 -354 0
23 75 24 355 356 0
23 75 24 355 -356 0
23 75 24 -355 357 0
23 75 24 -355 -357 0
-23 -75 24 358 359 0
-23 -75 24 358 -359 0
-23 -75 24 -358 360 0
-23 -75 24 -358 -360 0
23 -75 -24 361 362 0
23 -75 -24 361 -362 0
23 -75 -24 -361 363 0
23 -75 -24 -361 -363 0
-23 75 -24 364 365 0
-23 75 -24 364 -365 0
-23 75 -24 -364 366 0
-23 75 -24 -364 -366 0
24 76 25 367 368 0
24 76 25 367 -368 0
24 76 25 -367 369 0
24 76 25 -367 -369 0
-24 -76 25 370 371 0
-24 -76 25 370 -371 0
-24 -76 25 -370 372 0
-24 -76 25 -370 -372 0
24 -76 -25 373 374 0
24 -76 -25 373 -374 0
24 -76 -25 -373 375 0
24 -76 -25 -373 -375 0
-24 76 -25 376 377 0
-24 76 -25 376 -377 0
-24 76 -25 -376 378 0
-24 76 -25 -376 -378 0
25 77 78 379 380 0
25 77 78 379 -380 0
25 77 78 -379 381 0
25 77 78 -379 -381 0
-25 -77 78 382 383 0
-25 -77 78 382 -383 0
-25 -77 78 -382 384 0
-25 -77 78 -382 -384 0
25 -77 -78 385 386 0
25 -77 -78 385 -386 0
25 -77 -78 -385 387 0
25 -77 -78 -385 -387 0
-25 77 -78 388 389 0
-25 77 -78 388 -389 0
-25 77 -78 -388 390 0
-25 77 -78 -388 -390 0
26 77 78 391 392 0
26 77 78 391 -392 0
26 77 78 -391 393 0
26 77 78 -391 -393 0
-26 -77 78 394 395 0
-26 -77 78 394 -395 0
-26 -77 78 -394 396 0
-26 -77 78 -394 -396 0
26 -77 -78 397 398 0
26 -77 -78 397 -398 0
26 -77 -78 -397 399 0
26 -77 -78 -397 -399 0
-26 77 -78 400 401 0
-26 77 -78 400 -401 0
-26 77 -78 -400 402 0
-26 77 -78 -400 -402 0
27 76 26 403 404 0
27 76 26 403 -404 0
27 76 26 -403 405 0
27 76 26 -403 -405 0
-27 -76 26 406 407 0
-27 -76 26 406 -407 0
-27 -76 26 -406 408 0
-27 -76 26 -406 -408 0
27 -76 -26 409 410 0
27 -76 -26 409 -410 0
27 -76 -26 -409 411 0
27 -76 -26 -409 -411 0
-27 76 -26 412 413 0
-27 76 -26 412 -413 0
-27 76 -26 -412 414 0
-27 76 -26 -412 -414 0
28 75 27 415 416 0
28 75 27 415 -416 0
28 75 27 -415 417 0
28 75 27 -415 -417 0
-28 -75 27 418 419 0
-28 -75 27 418 -419 0
-28 -75 27 -418 420 0
-28 -75 27 -418 -420 0
28 -75 -27 421 422 0
28 -75 -27 421 -422 0
28 -75 -27 -421 423 0
28 -75 -27 -421 -423 0
-28 75 -27 424 425 0
-28 75 -27 424 -425 0
-28 75 -27 -424 426 0
-28 75 -27 -424 -426 0
29 74 28 427 428 0
29 74 28 427 -428 0
29 74 28 -427 429 0
29 74 28 -427 -429 0
-29 -74 28 430 431 0
-29 -74 28 430 -431 0
-29 -74 28 -430 432 0
-29 -74 28 -430 -432 0
29 -74 -28 433 434 0
29 -74 -28 433 -434 0
29 -74 -28 -433 435 0
29 -74 -28 -433 -435 0
-29 74 -28 436 437 0
-29 74 -28 436 -437 0
-29 74 -28 -436 438 0
-29 74 -28 -436 -438 0
30 73 29 439 440 0
30 73 29 439 -440 0
30 73 29 -439 441 0
30 73 29 -439 -441 0
-30 -73 29 442 443 0
-30 -73 29 442 -443 0
-30 -73 29 -442 444 0
-30 -73 29 -442 -444 0
30 -73 -29 445 446 0
30 -73 -29 445 -446 0
30 -73 -29 -445 447 0
30 -73 -29 -445 -447 0
-30 73 -29 448 449 0
-30 73 -29 448 -449 0
-30 73 -29 -448 450 0
-30 73 -29 -448 -450 0
31 72 30 451 452 0
31 72 30 451 -452 0
31 72 30 -451 453 0
31 72 30 -451 -453 0
-31 -72 30 454 455 0
-31 -72 30 454 -455 0
-31 -72 30 -454 456 0
-31 -72 30 -454 -456 0
31 -72 -30 457 458 0
31 -72 -30 457 -458 0
31 -72 -30 -457 459 0
31 -72 -30 -457 -459 0
-31 72 -30 460 461 0
-31 72 -30 460 -461 0
-31 72 -30 -460 462 0
-31 72 -30 -460 -462 0
32 71 31 463 464 0
32 71 31 463 -464 0
32 71 31 -463 465 0
32 71 31 -463 -465 0
-32 -71 31 466 467 0
-32 -71 31 466 -467 0
-32 -71 31 -466 468 0
-32 -71 31 -466 -468 0
32 -71 -31 469 470 0
32 -71 -31 469 -470 0
32 -71 -31 -469 471 0
32 -71 -31 -469 -471 0
-32 71 -31 472 473 0
-32 71 -31 472 -473 0
-32 71 -31 -472 474 0
-32 71 -31 -472 -474 0
33 70 32 475 476 0
33 70 32 475 -476 0
33 70 32 -475 477 0
33 70 32 -475 -477 0
-33 -70 32 478 479 0
-33 -70 32 478 -479 0
-33 -70 32 -478 480 0
-33 -70 32 -478 -480 0
33 -70 -32 481 482 0
33 -70 -32 481 -482 0
33 -70 -32 -481 483 0
33 -70 -32 -481 -483 0
-33 70 -32 484 485 0
-33 70 -32 484 -485 0
-33 70 -32 -484 486 0
-33 70 -32 -484 -486 0
34 69 33 487 488 0
34 69 33 487 -488 0
34 69 33 -487 489 0
34 69 33 -487 -489 0
-34 -69 33 490 491 0
-34 -69 33 490 -491 0
-34 -69 33 -490 492 0
-34 -69 33 -490 -492 0
34 -69 -33 493 494 0
34 -69 -33 493 -494 0
34 -69 -33 -493 495 0
34 -69 -33 -493 -495 0
-34 69 -33 496 497 0
-34 69 -33 496 -497 0
-34 69 -33 -496 498 0
-34 69 -33 -496 -498 0
35 68 34 499 500 0
35 68 34 499 -500 0
35 68 34 -499 501 0
35 68 34 -499 -501 0
-35 -68 34 502 503 0
-35 -68 34 502 -503 0
-35 -68 34 -502 504 0
-35 -68 34 -502 -504 0
35 -68 -34 505 506 0
35 -68 -34 505 -506 0
35 -68 -34 -505 507 0
35 -68 -34 -505 -507 0
-35 68 -34 508 509 0
-35 68 -34 508 -509 0
-35 68 -34 -508 510 0
-35 68 -34 -508 -510 0
36 67 35 511 512 0
36 67 35 511 -512 0
36 67 35 -511 513 0
36 67 35 -511 -513 0
-36 -67 35 514 515 0
-36 -67 35 514 -515 0
-36 -67 35 -514 516 0
-36 -67 35 -514 -516 0
36 -67 -35 517 518 0
36 -67 -35 517 -518 0
36 -67 -35 -517 519 0
36 -67 -35 -517 -519 0
-36 67 -35 520 521 0
-36 67 -35 520 -521 0
-36 67 -35 -520 522 0
-36 67 -35 -520 -522 0
37 66 36 523 524 0
37 66 36 523 -524 0
37 66 36 -523 525 0
37 66 36 -523 -525 0
-37 -66 36 526 527 0
-37 -66 36 526 -527 0
-37 -66 36 -526 528 0
-37 -66 36 -526 -528 0
37 -66 -36 529 530 0
37 -66 -36 529 -530 0
37 -66 -36 -529 531 0
37 -66 -36 -529 -531 0
-37 66 -36 532 533 0
-37 66 -36 532 -533 0
-37 66 -36 -532 534 0
-37 66 -36 -532 -534 0
38 65 37 535 536 0
38 65 37 535 -536 0
38 65 37 -535 537 0
38 65 37 -535 -537 0
-38 -65 37 538 539 0
-38 -65 37 538 -539 0
-38 -65 37 -538 540 0
-38 -65 37 -538 -540 0
38 -65 -37 541 542 0
38 -65 -37 541 -542 0
38 -65 -37 -541 543 0
38 -65 -37 -541 -543 0
-38 65 -37 544 545 0
-38 65 -37 544 -545 0
-38 65 -37 -544 546 0
-38 65 -37 -544 -546 0
39 64 38 547 548 0
39 64 38 547 -548 0
39 64 38 -547 549 0
39 64 38 -547 -549 0
-39 -64 38 550 551 0
-39 -64 38 550 -551 0
-39 -64 38 -550 552 0
-39 -64 38 -550 -552 0
39 -64 -38 553 554 0
39 -64 -38 553 -554 0
39 -64 -38 -553 555 0
39 -64 -38 -553 -555 0
-39 64 -38 556 557 0
-39 64 -38 556 -557 0
-39 64 -38 -556 558 0
-39 64 -38 -556 -558 0
40 63 39 559 560 0
40 63 39 559 -560 0
40 63 39 -559 561 0
40 63 39 -559 -561 0
-40 -63 39 562 563 0
-40 -63 39 562 -563 0
-40 -63 39 -562 564 0
-40 -63 39 -562 -564 0
40 -63 -39 565 566 0
40 -63 -39 565 -566 0
40 -63 -39 -565 567 0
40 -63 -39 -565 -567 0
-40 63 -39 568 569 0
-40 63 -39 568 -569 0
-40 63 -39 -568 570 0
-40 63 -39 -568 -570 0
41 62 40 571 572 0
41 62 40 571 -572 0
41 62 40 -571 573 0
41 62 40 -571 -573 0
-41 -62 40 574 575 0
-41 -62 40 574 -575 0
-41 -62 40 -574 576 0
-41 -62 40 -574 -576 0
41 -62 -40 577 578 0
41 -62 -40 577 -578 0
41 -62 -40 -577 579 0
41 -62 -40 -577 -579 0
-41 62 -40 580 581 0
-41 62 -40 580 -581 0
-41 62 -40 -580 582 0
-41 62 -40 -580 -582 0
42 61 41 583 584 0
42 61 41 583 -584 0
42 61 41 -583 585 0
42 61 41 -583 -585 0
-42 -61 41 586 587 0
-42 -61 41 586 -587 0
-42 -61 41 -586 588 0
-42 -61 41 -586 -588 0
42 -61 -41 589 590 0
42 -61 -41 589 -590 0
42 -61 -41 -589 591 0
42 -61 -41 -589 -591 0
-42 61 -41 592 593 0
-42 61 -41 592 -593 0
-42 61 -41 -592 594 0
-42 61 -41 -592 -594 0
43 60 42 595 596 0
43 60 42 595 -596 0
43 60 42 -595 597 0
43 60 42 -595 -597 0
-43 -60 42 598 599 0
-43 -60 42 598 -599 0
-43 -60 42 -598 600 0
-43 -60 42 -598 -600 0
43 -60 -42 601 602 0
43 -60 -42 601 -602 0
43 -60 -42 -601 603 0
43 -60 -42 -601 -603 0
-43 60 -42 604 605 0
-43 60 -42 604 -605 0
-43 60 -42 -604 606 0
-43 60 -42 -604 -606 0
44 59 43 607 608 0
44 59 43 607 -608 0
44 59 43 -607 609 0
44 59 43 -607 -609 0
-44 -59 43 610 611 0
-44 -59 43 610 -611 0
-44 -59 43 -610 612 0
-44 -59 43 -610 -612 0
44 -59 -43 613 614 0
44 -59 -43 613 -614 0
44 -59 -43 -613 615 0
44 -59 -43 -613 -615 0
-44 59 -43 616 617 0
-44 59 -43 616 -617 0
-44 59 -43 -616 618 0
-44 59 -43 -616 -618 0
45 58 44 619 620 0
45 58 44 619 -620 0
45 58 44 -619 621 0
45 58 44 -619 -621 0
-45 -58 44 622 623 0
-45 -58 44 622 -623 0
-45 -58 44 -622 624 0
-45 -58 44 -622 -624 0
45 -58 -44 625 626 0
45 -58 -44 625 -626 0
45 -58 -44 -625 627 0
45 -58 -44 -625 -627 0
-45 58 -44 628 629 0
-45 58 -44 628 -629 0
-45 58 -44 -628 630 0
-45 58 -44 -628 -630 0
46 57 45 631 632 0
46 57 45 631 -632 0
46 57 45 -631 633 0
46 57 45 -631 -633 0
-46 -57 45 634 635 0
-46 -57 45 634 -635 0
-46 -57 45 -634 636 0
-46 -57 45 -634 -636 0
46 -57 -45 637 638 0
46 -57 -45 637 -638 0
46 -57 -45 -637 639 0
46 -57 -45 -637 -639 0
-46 57 -45 640 641 0
-46 57 -45 640 -641 0
-46 57 -45 -640 642 0
-46 57 -45 -640 -642 0
47 56 46 643 644 0
47 56 46 643 -644 0
47 56 46 -643 645 0
47 56 46 -643 -645 0
-47 -56 46 646 647 0
-47 -56 46 646 -647 0
-47 -56 46 -646 648 0
-47 -56 46 -646 -648 0
47 -56 -46 649 650 0
47 -56 -46 649 -650 0
47 -56 -46 -649 651 0
47 -56 -46 -649 -651 0
-47 56 -46 652 653 0
-47 56 -46 652 -653 0
-47 56 -46 -652 654 0
-47 56 -46 -652 -654 0
48 55 47 655 656 0
48 55 47 655 -656 0
48 55 47 -655 657 0
48 55 47 -655 -657 0
-48 -55 47 658 659 0
-48 -55 47 658 -659 0
-48 -55 47 -658 660 0
-48 -55 47 -658 -660 0
48 -55 -47 661 662 0
48 -55 -47 661 -662 0
48 -55 -47 -661 663 0
48 -55 -47 -661 -663 0
-48 55 -47 664 665 0
-48 55 -47 664 -665 0
-48 55 -47 -664 666 0
-48 55 -47 -664 -666 0
49 54 48 667 668 0
49 54 48 667 -668 0
49 54 48 -667 669 0
49 54 48 -667 -669 0
-49 -54 48 670 671 0
-49 -54 48 670 -671 0
-49 -54 48 -670 672 0
-49 -54 48 -670 -672 0
49 -54 -48 673 674 0
49 -54 -48 673 -674 0
49 -54 -48 -673 675 0
49 -54 -48 -673 -675 0
-49 54 -48 676 677 0
-49 54 -48 676 -677 0
-49 54 -48 -676 678 0
-49 54 -48 -676 -678 0
50 53 49 679 680 0
50 53 49 679 -680 0
50 53 49 -679 681 0
50 53 49 -679 -681 0
-50 -53 49 682 683 0
-50 -53 49 682 -683 0
-50 -53 49 -682 684 0
-50 -53 49 -682 -684 0
50 -53 -49 685 686 0
50 -53 -49 685 -686 0
50 -53 -49 -685 687 0
50 -53 -49 -685 -687 0
-50 53 -49 688 689 0
-50 53 -49 688 -689 0
-50 53 -49 -688 690 0
-50 53 -49 -688 -690 0
51 52 -50 691 692 0
51 52 -50 691 -692 0
51 52 -50 -691 693 0
51 52 -50 -691 -693 0
-51 -52 -50 694 695 0
-51 -52 -50 694 -695 0
-51 -52 -50 -694 696 0
-51 -52 -50 -694 -696 0
51 -52 50 697 698 0
51 -52 50 697 -698 0
51 -52 50 -697 699 0
51 -52 50 -697 -699 0
-51 52 50 700 701 0
-51 52 50 700 -701 0
-51 52 50 -700 702 0
-51 52 50 -700 -702 0

